NAME : tsp_395_sol.txt
COMMENT : OR-Tools Guided Local Search
TYPE : TOUR
DIMENSION : 102
COST : 8257
STATUS : ROUTING_SUCCESS
GAP : 0.00% (Reference Solution)
TOUR_SECTION
1
76
37
58
98
47
41
78
72
49
70
9
71
13
54
25
94
67
90
30
3
11
57
2
46
34
56
38
51
33
80
62
66
17
42
29
6
7
69
88
61
43
52
79
5
45
27
14
18
82
95
26
15
16
81
102
12
83
23
93
50
60
85
99
87
35
65
55
19
92
20
10
101
28
64
21
75
89
63
40
74
44
96
48
24
59
4
77
8
32
91
22
68
86
73
84
36
31
53
97
100
39
-1
